nNurses = 86;
nHours = 28;
minHours = 9;
maxHours = 20;
maxConsec = 18;
maxPresence = 11;
demand = [9, 10, 15, 15, 17, 13, 13, 12, 13, 17, 19, 22, 17, 20, 19, 15, 18, 22, 19, 20, 23, 28, 32, 27, 24, 28, 31, 30];
